(set-logic ALL)
(declare-fun seed0_T_1 () Bool)
(declare-fun seed0_T_2 () Bool)
(declare-fun seed0_T_3 () Bool)
(declare-fun seed0_T_4 () Bool)
(declare-fun seed0_T_5 () Bool)
(declare-fun seed0_var_0xINPUT_119217 () String)
(assert (and (or (= seed0_T_1 (not (= "" seed0_var_0xINPUT_119217))) (or (str.< (str.++ seed0_var_0xINPUT_119217 "O2AIyF9RihncvG8pCwSk") (str.++ seed0_var_0xINPUT_119217 "yoKuPFdBlaWnk2L6CeiU")) (str.contains (str.++ seed0_var_0xINPUT_119217 "ijlLkDRw") (str.++ seed0_var_0xINPUT_119217 "geES1h")))) (or seed0_T_1 (=> (str.<= (str.++ seed0_var_0xINPUT_119217 "Yap4MkK1IErNF") (str.++ seed0_var_0xINPUT_119217 "HfsgEQK4lj52xPkNIdO")) (str.< (str.++ seed0_var_0xINPUT_119217 "BOmhMXcJby") (str.++ seed0_var_0xINPUT_119217 "")))) (or (= seed0_T_2 (= "-" seed0_var_0xINPUT_119217)) (and (str.contains (str.++ seed0_var_0xINPUT_119217 "gfMzUq0") (str.++ seed0_var_0xINPUT_119217 "el13c")) (str.<= (str.++ seed0_var_0xINPUT_119217 "p") (str.++ seed0_var_0xINPUT_119217 "FgSvzkt4")))) (or (= seed0_T_3 (not seed0_T_2)) (and (str.prefixof (str.++ seed0_var_0xINPUT_119217 "xGZWOMb7RuX") (str.++ seed0_var_0xINPUT_119217 "Z8e9jW")) (str.< (str.++ seed0_var_0xINPUT_119217 "Q") (str.++ seed0_var_0xINPUT_119217 "kGjATK6eib1CZ0")))) (or seed0_T_3 (xor (str.<= (str.++ seed0_var_0xINPUT_119217 "0Dn2t") (str.++ seed0_var_0xINPUT_119217 "RoYBj")) (str.prefixof (str.++ seed0_var_0xINPUT_119217 "lL") (str.++ seed0_var_0xINPUT_119217 "M8qVdtPKY4")))) (or (= seed0_T_4 (= "" seed0_var_0xINPUT_119217)) (and (str.<= (str.++ seed0_var_0xINPUT_119217 "qQB2kUgZpwyvsoeuz") (str.++ seed0_var_0xINPUT_119217 "FpUK")) (str.suffixof (str.++ seed0_var_0xINPUT_119217 "ozuevDmVIRH") (str.++ seed0_var_0xINPUT_119217 "bgToitQ")))) (or (= seed0_T_5 (not seed0_T_4)) (and (str.<= (str.++ seed0_var_0xINPUT_119217 "z") (str.++ seed0_var_0xINPUT_119217 "jzY5OfsHV")) (str.<= (str.++ seed0_var_0xINPUT_119217 "2DgKOkeR6AI8") (str.++ seed0_var_0xINPUT_119217 "fc7WsviY")))) (or seed0_T_5 (xor (str.<= (str.++ seed0_var_0xINPUT_119217 "khpAETwurDmHn9eIOFl") (str.++ seed0_var_0xINPUT_119217 "NutSXIqDlQ4WL0FYrMd")) (str.< (str.++ seed0_var_0xINPUT_119217 "dEks") (str.++ seed0_var_0xINPUT_119217 ""))))))
(check-sat)
(exit)